c --- [ banner ] -------------------------------------------------------------
c 
c CaDiCaL Radically Simplified CDCL SAT Solver
c Copyright (c) 2016-2021 A. Biere, M. Fleury, N. Froleyks
c 
c Version 1.5.2 a5f15211db36c3956764e18194dd5bd63bf3b5e6
c g++ (GCC) 9.3.0 -Wall -Wextra -O3 -DNDEBUG
c Fri Oct 21 01:27:37 EDT 2022 Linux gra-login3 3.10.0-1160.66.1.el7.x86_64 x86_64
c 
c --- [ limit ] --------------------------------------------------------------
c 
c setting conflict limit to 200000 conflicts (due to '200000')
c 
c --- [ parsing input ] ------------------------------------------------------
c 
c reading DIMACS file from '33.cubes273.adj'
c opening file to read '33.cubes273.adj'
c found 'p cnf 6160 1595471' header
c parsed 1595471 clauses in 19.37 seconds process time
c closing file '33.cubes273.adj'
c after reading 1457566749 bytes 1390.0 MB
c 
c --- [ options ] ------------------------------------------------------------
c 
c all options are set to their default value
c 
c --- [ solving ] ------------------------------------------------------------
c 
c time measured in process time since initialization
c 
c  seconds    reductions  redundant   irredundant
c          MB     restarts       trail       variables
c            level   conflicts       glue         remaining
c 
c * 19.37 1367  0 0   0    0    0  0% 0 1595422 2410 39%
c { 21.21 1441  0 0   0    0    0  0% 0 1595422 2410 39%
c i 21.64 1445 856 0   0   12   11 32% 1 1595422 2400 39%
c i 24.08 1485 220 0  18   90   62 25% 15 1595422 2396 39%
c i 24.09 1485 218 0  19   91   62 25% 15 1595422 2395 39%
c i 24.09 1485 215 0  19   92   62 25% 15 1595422 2394 39%
c i 24.18 1485 198 0  22  102   68 25% 16 1595422 2393 39%
c i 24.24 1486 192 0  23  106   71 26% 17 1595422 2392 39%
c i 24.24 1486 189 0  23  108   72 26% 17 1595422 2391 39%
c i 24.39 1486 179 0  26  120   83 26% 21 1595422 2388 39%
c i 24.96 1489 169 0  31  136   98 26% 25 1595422 2381 39%
c i 26.28 1495 149 0  43  195  135 25% 29 1595422 2380 39%
c i 27.43 1498 142 0  54  242  175 25% 32 1595422 2377 39%
c i 27.45 1498 142 0  55  243  175 25% 32 1595422 2376 39%
c i 27.69 1498 142 0  56  254  183 25% 34 1595422 2375 39%
c i 28.16 1501 138 0  61  279  202 26% 34 1595422 2374 39%
c i 28.47 1502 135 0  65  292  212 26% 35 1595422 2373 39%
c i 28.48 1502 134 0  65  294  213 26% 35 1595422 2372 39%
c - 32.44 1491 133 1  67  301  219 26% 35 387435 2372 39%
c i 32.68 1377 131 1  68  308  224 26% 35 387435 2371 38%
c 
c  seconds     reductions  redundant   irredundant
c          MB      restarts       trail       variables
c             level   conflicts       glue         remaining
c 
c i 32.96 1377 126 1  73  327  238 26% 35 387435 2370 38%
c i 33.07 1377 122 1  73  339  249 26% 34 387435 2369 38%
c i 33.13 1377 122 1  73  344  253 26% 34 387435 2368 38%
c i 33.17 1377 122 1  73  349  257 26% 34 387435 2367 38%
c i 33.29 1377 121 1  73  358  264 26% 34 387435 2366 38%
c i 33.54 1377 119 1  77  383  287 26% 36 387435 2365 38%
c i 33.60 1377 118 1  79  388  290 26% 36 387435 2364 38%
c i 33.66 1377 115 1  80  404  304 26% 35 387435 2363 38%
c i 33.67 1377 113 1  80  409  308 26% 35 387435 2362 38%
c i 33.76 1377 113 1  80  421  315 26% 34 387435 2361 38%
c i 33.94 1377 112 1  80  428  321 26% 34 387435 2360 38%
c i 34.01 1378 110 1  80  438  325 26% 34 387435 2359 38%
c i 34.02 1378 110 1  80  439  325 26% 34 387435 2358 38%
c i 34.05 1377 108 1  80  456  339 26% 34 387435 2357 38%
c i 34.05 1377 108 1  80  457  339 26% 34 387435 2356 38%
c i 34.15 1378 106 1  81  475  356 26% 34 387435 2355 38%
c i 34.18 1378 105 1  81  480  360 26% 34 387435 2354 38%
c i 34.18 1377 105 1  81  483  362 27% 34 387435 2353 38%
c i 34.19 1377 104 1  81  487  363 27% 34 387435 2352 38%
c i 34.19 1377 104 1  81  488  363 27% 34 387435 2351 38%
c 
c  seconds     reductions  redundant   irredundant
c          MB      restarts       trail       variables
c             level   conflicts       glue         remaining
c 
c i 34.19 1377 104 1  81  489  363 27% 34 387435 2350 38%
c i 34.19 1377 104 1  81  490  363 27% 34 387435 2349 38%
c i 34.22 1377 101 1  81  504  375 27% 33 387435 2348 38%
c i 34.36 1378 105 1  81  527  395 27% 33 387435 2347 38%
c i 34.53 1377 103 1  85  558  419 27% 34 387435 2346 38%
c i 34.95 1377 95 1  89  635  472 26% 32 387435 2345 38%
c i 35.10 1378 94 1  89  656  491 26% 32 387435 2344 38%
c i 35.16 1378 94 1  89  663  496 26% 32 387435 2343 38%
c i 35.27 1378 93 1  90  686  515 26% 32 387435 2342 38%
c i 35.31 1378 93 1  90  688  516 26% 32 387435 2341 38%
c i 35.36 1378 93 1  90  691  518 26% 32 387435 2340 38%
c i 35.44 1378 92 1  90  705  528 26% 32 387435 2339 38%
c i 35.91 1378 89 1  90  772  592 27% 32 387435 2338 38%
c i 35.97 1378 89 1  90  780  599 27% 32 387435 2337 38%
c i 36.10 1378 89 1  91  789  605 27% 33 387435 2336 38%
c i 36.12 1378 88 1  92  793  608 27% 33 387435 2335 38%
c i 36.44 1378 87 1  98  822  636 27% 33 387435 2334 38%
c i 36.72 1378 87 1 102  861  672 27% 33 387435 2333 38%
c i 37.30 1379 84 1 110  926  725 27% 33 387435 2332 38%
c i 37.43 1379 85 1 110  939  736 27% 33 387435 2331 38%
c 
c  seconds    reductions  redundant   irredundant
c          MB     restarts       trail       variables
c            level   conflicts       glue         remaining
c 
c i 37.56 1379 85 1 112  950  745 27% 33 387435 2330 38%
c i 37.60 1379 84 1 113  965  757 27% 33 387435 2329 38%
c i 37.82 1379 83 1 118  995  783 27% 33 387435 2328 38%
c i 37.87 1379 83 1 118  997  784 27% 33 387435 2327 38%
c i 37.87 1379 84 1 118  999  785 27% 33 387435 2326 38%
c } 37.87 1379 84 1 118 1000  786 27% 33 387435 2326 38%
c [ 37.87 1379  0 1 118 1000  786  0% 0 387435 2326 38%
c O 37.90 1379 85 1 118 1002  788 21% 51 387435 2326 38%
c i 37.93 1379 43 1 118 1004  789 17% 26 387435 2294 37%
c i 38.14 1379 39 1 118 1057  834 28% 28 387435 2293 37%
c i 38.15 1379 38 1 118 1058  834 28% 28 387435 2292 37%
c i 38.16 1379 39 1 118 1073  848 29% 24 387435 2291 37%
c i 38.18 1379 37 1 118 1087  857 29% 23 387435 2290 37%
c i 38.22 1379 34 1 118 1125  884 30% 22 387435 2289 37%
c i 38.30 1379 30 1 118 1196  949 30% 20 387435 2288 37%
c i 38.30 1379 30 1 118 1197  949 30% 20 387435 2287 37%
c - 39.21 1537 28 2 118 1253  885 31% 20 386735 2287 37%
c i 39.32 1538 28 2 118 1271  899 31% 20 386735 2286 37%
c i 39.32 1538 28 2 118 1272  899 31% 20 386735 2285 37%
c i 39.32 1538 28 2 118 1273  899 31% 19 386735 2284 37%
c 
c  seconds    reductions  redundant   irredundant
c          MB     restarts       trail       variables
c            level   conflicts       glue         remaining
c 
c i 39.75 1537 26 2 118 1529 1086 31% 20 386735 2283 37%
c i 39.75 1538 26 2 118 1531 1086 31% 20 386735 2282 37%
c i 39.84 1538 25 2 118 1643 1148 31% 19 386735 2281 37%
c i 40.02 1538 24 2 118 1798 1263 31% 18 386735 2280 37%
c i 40.21 1537 23 2 118 1869 1309 31% 18 386735 2279 37%
c i 40.31 1538 23 2 118 1921 1354 31% 18 386735 2278 37%
c i 40.32 1538 23 2 118 1923 1355 31% 18 386735 2277 37%
c i 40.32 1538 23 2 118 1925 1355 31% 18 386735 2276 37%
c i 40.32 1538 23 2 118 1927 1356 31% 18 386735 2275 37%
c i 40.33 1538 23 2 118 1935 1359 31% 18 386735 2274 37%
c i 40.34 1538 23 2 118 1947 1367 31% 18 386735 2273 37%
c i 40.36 1538 23 2 118 1960 1376 31% 18 386735 2272 37%
c i 40.37 1538 23 2 118 1977 1386 31% 18 386735 2271 37%
c i 40.47 1538 23 2 118 2049 1435 31% 18 386735 2270 37%
c i 41.38 1533 23 2 119 2160 1518 55% 18 386684 2269 37%
c i 42.15 1533 22 2 119 2592 1795 50% 17 386684 2268 37%
c i 42.15 1533 22 2 119 2593 1795 50% 17 386684 2267 37%
c - 42.66 1532 22 3 119 2681 1397 50% 17 386675 2267 37%
c i 42.97 1532 21 3 119 2851 1524 50% 17 386675 2266 37%
c ] 43.22 1532 22 3 119 3000 1623 50% 17 386675 2266 37%
c 
c  seconds    reductions  redundant   irredundant
c          MB     restarts       trail       variables
c            level   conflicts       glue         remaining
c 
c { 43.22 1532 84 3 119 3000 1623 74% 33 386675 2266 37%
c F 43.23 1532 83 3 119 3005 1628 73% 33 386675 2266 37%
c i 43.91 1532 69 3 119 3421 1925 65% 30 386675 2265 37%
c i 44.34 1532 59 3 119 3933 2310 61% 27 386675 2264 37%
c - 45.22 1531 51 4 121 4587 2034 57% 25 386666 2264 37%
c d 46.47 1531 47 4 123 5007 2328 56% 24 386631 2250 37%
c 3 46.51 1531 47 4 123 5007 3376 56% 24 386631 2250 37%
c 2 46.60 1531 47 4 123 5007 3450 56% 24 386610 2250 37%
c p 50.85 1531 47 4 123 5007 5881 56% 24 386610 2197 36%
c d 51.41 1531 47 4 123 5007 5800 56% 24 323684 2196 36%
c d 51.61 1531 47 4 123 5007 5800 56% 24 323682 2195 36%
c # 53.96 1531 44 4 142 6008 6600 53% 24 323682 2195 36%
c - 58.78 1501 44 5 250 6969 3172 51% 24 323682 2195 36%
c } 58.81 1501 44 5 250 7000 3193 51% 24 323682 2195 36%
c [ 58.81 1501 22 5 250 7000 3193 50% 17 323682 2195 36%
c - 60.12 1381 21 6 252 9689 3125 50% 17 323682 2195 36%
c I 60.34 1381 21 6 252 10010 3334 50% 17 323682 2195 36%
c - 67.19 1382 23 7 254 12860 3898 48% 18 323682 2195 36%
c ] 74.18 1382 23 7 255 15002 5417 47% 19 323682 2195 36%
c { 74.18 1382 44 7 255 15002 5417 51% 24 323682 2195 36%
c 
c  seconds    reductions   redundant   irredundant
c          MB     restarts        trail       variables
c            level    conflicts       glue         remaining
c 
c 2 74.26 1382 44 7 255 15007 6772 51% 24 323682 2195 36%
c p 76.27 1382 44 7 255 15007 9265 51% 24 323682 2195 36%
c B 76.49 1382 44 7 255 15012 9270 51% 24 323682 2195 36%
c - 79.63 1382 41 8 277 16485 4888 50% 23 323682 2195 36%
c s 84.62 1382 36 8 328 18742 6319 49% 21 321979 2195 36%
c v 91.33 1382 36 8 328 18742 6319 49% 21 321962 2195 36%
c t 91.44 1383 36 8 328 18742 6302 49% 21 321951 2195 36%
c e 92.64 1385 36 8 328 18742 5911 49% 21 319302 845 14%
c s 92.76 1385 36 8 328 18742 5911 49% 21 318804 845 14%
c - 96.29 1386 33 9 328 20562 5354 72% 20 318804 845 14%
c W 97.30 1386 32 9 328 21019 5733 72% 19 318804 845 14%
c - 103.91 1386 30 10 548 25073 5846 71% 19 318804 845 14%
c F 111.98 1386 30 10 810 28020 7738 70% 20 318804 845 14%
c p 118.28 1386 31 10 1025 30007 11177 70% 20 318804 845 14%
c - 118.60 1386 31 11 1029 30034 6452 70% 20 318804 845 14%
c } 121.35 1386 32 11 1133 31006 7263 70% 21 318804 845 14%
c [ 121.35 1386 23 11 1133 31006 7263 127% 19 318804 845 14%
c - 123.35 1386 30 12 1135 35450 7201 107% 24 318804 845 14%
c B 123.70 1386 31 12 1136 36021 7605 106% 25 318804 845 14%
c - 129.70 1386 30 13 1139 41313 7614 96% 25 318804 845 14%
c 
c  seconds     reductions      redundant   irredundant
c           MB      restarts          trail       variables
c             level      conflicts        glue        remaining
c 
c W 134.58 1386 29 13 1140 45023 10224 91% 24 318804 845 14%
c ] 134.71 1386 29 13 1140 45114 10297 91% 24 318804 845 14%
c 1 134.71 1386 29 13 1140 45114 10297 91% 24 318804 845 14%
c 
c --- [ writing output ] -----------------------------------------------------
c 
c writing simplified CNF to DIMACS file 'simp/33.cubes273.adj.simp1'
c * 134.71 1386 29 13 1140 45114 10297 91% 24 318804 845 14%
c opening file to write 'simp/33.cubes273.adj.simp1'
c writing 'p cnf 6160 318804' header
c closing file 'simp/33.cubes273.adj.simp1'
c after writing 139907690 bytes 133.4 MB
c wrote 318804 clauses in 1.03 seconds process time
c 
c --- [ writing extension ] --------------------------------------------------
c 
c writing extension stack to 'simp/33.cubes273.adj.ext1'
c opening file to write 'simp/33.cubes273.adj.ext1'
c closing file 'simp/33.cubes273.adj.ext1'
c after writing 86362 bytes 0.1 MB
c wrote 3876 witnesses in 0.00 seconds process time
c 
c --- [ result ] -------------------------------------------------------------
c 
s SATISFIABLE
c 
c --- [ run-time profiling ] -------------------------------------------------
c 
c process time taken by individual solving procedures
c (percentage relative to process time for solving)
c 
c        96.83   83.95% search
c        60.58   52.52% unstable
c        32.42   28.11% stable
c        19.37   16.79% parse
c        18.51   16.05% simplify
c         7.64    6.63% probe
c         6.78    5.88% vivify
c         2.11    1.83% elim
c         1.98    1.72% walk
c         1.84    1.60% lucky
c         0.25    0.22% subsume
c         0.16    0.14% ternary
c   =================================
c       115.34   84.97% solve
c 
c last line shows process time for solving
c (percentage relative to total process time)
c 
c --- [ statistics ] ---------------------------------------------------------
c 
c chronological:              8256        18.30 %  of conflicts
c conflicts:                 45114       391.13    per second
c decisions:                116964      1014.07    per second
c eliminated:                 1350        21.92 %  of all variables
c fixed:                       805        13.07 %  of all variables
c learned:                   44157        97.88 %  per conflict
c learned_lits:            7542575       100.00 %  learned literals
c minimized:                     0         0.00 %  learned literals
c shrunken:                4231051        56.10 %  learned literals
c minishrunken:             702624         9.32 %  learned literals
c propagations:            4793370         0.04 M  per second
c reduced:                   21378        47.39 %  per conflict
c rephased:                      9      5012.67    interval
c restarts:                   1140        39.57    interval
c stabilizing:                   3        53.44 %  of conflicts
c substituted:                  16         0.26 %  of all variables
c subsumed:                  14252         0.40 %  of all clauses
c strengthened:               4727         0.13 %  of all clauses
c ternary:                    2977         0.61 %  of resolved
c vivified:                     31         0.00 %  of all clauses
c walked:                        2     22557.00    interval
c weakened:                   3071         2.97    average size
c 
c seconds are measured in process time for solving
c 
c --- [ resources ] ----------------------------------------------------------
c 
c total process time since initialization:       135.74    seconds
c total real time since initialization:          150.24    seconds
c maximum resident set size of process:         1690.92    MB
c 
c --- [ shutting down ] ------------------------------------------------------
c 
c exit 10
WARNING! DIMACS header mismatch: wrong number of variables.
============================[ Problem Statistics ]=============================
|                                                                             |
|  Number of variables:          3245                                         |
|  Number of clauses:          318804                                         |
|  Parse time:                   1.83 s                                       |
|  Simplification time:          0.03 s                                       |
|                                                                             |
============================[ Search Statistics ]====================================================
| Conflicts |          ORIGINAL         |          LEARNT          | Num Sols |      SUBGRAPHS      |
|           |    Vars  Clauses Literals |    Limit  Clauses Lit/Cl |          | Canonical Noncanon. |
=====================================================================================================
|       115 |    3151   318819 30307876 |     2000      115    103 |        0 |        18        15 |
|       282 |    3151   318836 30308173 |     2000      282     93 |        0 |        28        32 |
|       583 |    3151   318912 30309754 |     2000      583     88 |        0 |        59       108 |
|      1014 |    3151   319006 30311511 |     2000     1014     89 |        0 |        89       202 |
|      1619 |    3151   319105 30313357 |     2000     1619     84 |        0 |       122       301 |
|      2517 |    3151   319244 30316205 |     3600     1517     49 |        0 |       199       440 |
|      3772 |    3151   319360 30318544 |     3600     2772     68 |        0 |       248       556 |
|      5799 |    3151   319679 30324402 |     5002     3001     54 |        0 |       363       875 |
|      8586 |    3151   319904 30328991 |     6309     3295     43 |        0 |       492      1100 |
|     12572 |    3151   320046 30334063 |     7562     4134     49 |        0 |       573      1242 |
|     19397 |    3151   321105 30356183 |     8781     7178     60 |        0 |       998      2301 |
|     28762 |    3151   321821 30371228 |    11201     7163     52 |        0 |      1342      3017 |
|     42559 |    3151   322644 30386376 |    13607     9166     53 |        0 |      1771      3840 |
|     63968 |    3151   324592 30426808 |    17212     8380     31 |        0 |      2421      5788 |
|     95129 |    3151   326561 30466618 |    20808    11937     43 |        0 |      3445      7757 |
|    141056 |    3151   328699 30508012 |    25603    12659     29 |        0 |      4687      9895 |
|    211416 |    3151   333375 30585225 |    30415    28231     67 |        0 |      6657     14571 |
|    318274 |    3151   341707 30719876 |    37614    34888     66 |        0 |     10928     22903 |
|    487784 |    3151   363428 31059783 |    47222    37206     57 |        0 |     20090     44624 |
|    751708 |    3151   405669 31651979 |    59214    38122     42 |        0 |     30881     86865 |
|   1107821 |    3151   429257 32026525 |    72414    35635     23 |        0 |     46252    110453 |
|   1639641 |    3151   462289 32682424 |    88007    50048     37 |        0 |     64509    143485 |
|   2441546 |    3151   516012 33596518 |   107230    75976     43 |        0 |     92478    197208 |
|   3690434 |    3125   593238 34617897 |   132402    73236     33 |        0 |    137198    323822 |
=====================================================================================================
Number of solutions   : 0
Canonical subgraphs   : 147619         (21 /sec)
          order  3    : 1              (166667 /sec)
          order  4    : 1              (500000 /sec)
          order  5    : 1              (250000 /sec)
          order  6    : 1              (55556 /sec)
          order  7    : 1              (8929 /sec)
          order  8    : 2              (1358 /sec)
          order  9    : 6              (315 /sec)
          order 10    : 24             (94 /sec)
          order 11    : 114            (31 /sec)
          order 12    : 619            (18 /sec)
          order 13    : 3798           (17 /sec)
          order 14    : 23349          (22 /sec)
          order 15    : 83356          (22 /sec)
          order 16    : 22341          (20 /sec)
          order 17    : 10165          (16 /sec)
          order 18    : 2478           (16 /sec)
          order 19    : 1135           (15 /sec)
          order 20    : 128            (18 /sec)
          order 21    : 99             (18 /sec)
          order 22    : 0              (-nan /sec)
Noncanonical subgraphs: 350080         (278 /sec)
          order  3    : 0              (-nan /sec)
          order  4    : 0              (-nan /sec)
          order  5    : 0              (-nan /sec)
          order  6    : 0              (-nan /sec)
          order  7    : 0              (-nan /sec)
          order  8    : 0              (-nan /sec)
          order  9    : 0              (-nan /sec)
          order 10    : 0              (-nan /sec)
          order 11    : 0              (-nan /sec)
          order 12    : 0              (-nan /sec)
          order 13    : 8371           (6829 /sec)
          order 14    : 92749          (886 /sec)
          order 15    : 88819          (1397 /sec)
          order 16    : 157423         (149 /sec)
          order 17    : 2605           (89 /sec)
          order 18    : 6              (187 /sec)
          order 19    : 1              (66667 /sec)
          order 20    : 0              (-nan /sec)
          order 21    : 0              (-nan /sec)
Canonicity checking   : 7170.04 s
Noncanonicity checking: 1258.35 s
Total canonicity time : 8428.4 s
database reductions   : 112
restarts              : 7163
conflicts             : 4014701        (374 /sec)
decisions             : 5220866        (0.00 % random) (486 /sec)
propagations          : 195840728      (18233 /sec)
conflict literals     : 400381898      (54.55 % deleted)
actual reward         : 0.271014
Memory used           : 486.00 MB
CPU time              : 10741.1 s

UNSATISFIABLE
